nTasks=4;
nThreads=9;
nCPUs=3;
nCores=10;
rh=[812.130369484 234.851300517 577.037464485 397.84932787 560.397635323 636.579573064 117.021714358 663.577427294 315.71214698];
rc=[789.985971381 711.563049444 519.429940049];
CK=[
	[1 1 1 1 0 0 0 0 0 0]
	[0 0 0 0 1 1 1 0 0 0]
	[0 0 0 0 0 0 0 1 1 1]
];
TH=[
	[1 0 0 0 0 0 0 0 0]
	[0 1 1 1 0 0 0 0 0]
	[0 0 0 0 1 1 1 1 0]
	[0 0 0 0 0 0 0 0 1]
];
